\ This file has been generated by DOcplex
\ ENCODING=ISO-8859-1
\Problem name: random_problem.lp

Minimize
 obj: - 78 x0 - 39 x1 + 226 x2 + 113 x3 - 236 x4 - 118 x5 + 328 x6 + 164 x7
      - 430 x8 - 215 x9 - 296 x10 - 148 x11 - 282 x12 - 141 x13 + [ 432 x0^2
      + 432 x0*x1 + 496 x0*x2 + 248 x0*x3 + 320 x0*x4 + 160 x0*x5 + 256 x0*x6
      + 128 x0*x7 - 112 x0*x8 - 56 x0*x9 + 304 x0*x10 + 152 x0*x11 + 896 x0*x12
      + 448 x0*x13 + 108 x1^2 + 248 x1*x2 + 124 x1*x3 + 160 x1*x4 + 80 x1*x5
      + 128 x1*x6 + 64 x1*x7 - 56 x1*x8 - 28 x1*x9 + 152 x1*x10 + 76 x1*x11
      + 448 x1*x12 + 224 x1*x13 + 832 x2^2 + 832 x2*x3 + 112 x2*x4 + 56 x2*x5
      + 1040 x2*x6 + 520 x2*x7 + 48 x2*x8 + 24 x2*x9 + 704 x2*x10 + 352 x2*x11
      + 384 x2*x12 + 192 x2*x13 + 208 x3^2 + 56 x3*x4 + 28 x3*x5 + 520 x3*x6
      + 260 x3*x7 + 24 x3*x8 + 12 x3*x9 + 352 x3*x10 + 176 x3*x11 + 192 x3*x12
      + 96 x3*x13 + 464 x4^2 + 464 x4*x5 - 16 x4*x6 - 8 x4*x7 + 32 x4*x10
      + 16 x4*x11 - 32 x4*x12 - 16 x4*x13 + 116 x5^2 - 8 x5*x6 - 4 x5*x7
      + 16 x5*x10 + 8 x5*x11 - 16 x5*x12 - 8 x5*x13 + 1128 x6^2 + 1128 x6*x7
      - 336 x6*x8 - 168 x6*x9 + 224 x6*x10 + 112 x6*x11 + 512 x6*x12
      + 256 x6*x13 + 282 x7^2 - 168 x7*x8 - 84 x7*x9 + 112 x7*x10 + 56 x7*x11
      + 256 x7*x12 + 128 x7*x13 + 512 x8^2 + 512 x8*x9 + 384 x8*x10 + 192 x8*x11
      - 304 x8*x12 - 152 x8*x13 + 128 x9^2 + 192 x9*x10 + 96 x9*x11 - 152 x9*x12
      - 76 x9*x13 + 536 x10^2 + 536 x10*x11 + 288 x10*x12 + 144 x10*x13
      + 134 x11^2 + 144 x11*x12 + 72 x11*x13 + 872 x12^2 + 872 x12*x13
      + 218 x13^2 ]/2
Subject To
 c0: 2 x0 + x1 + 2 x2 + x3 + 2 x4 + x5 + 2 x6 + x7 + 2 x8 + x9 + 2 x10 + x11
     + 2 x12 + x13 = 3

Bounds
 0 <= x0 <= 1
 0 <= x1 <= 1
 0 <= x2 <= 1
 0 <= x3 <= 1
 0 <= x4 <= 1
 0 <= x5 <= 1
 0 <= x6 <= 1
 0 <= x7 <= 1
 0 <= x8 <= 1
 0 <= x9 <= 1
 0 <= x10 <= 1
 0 <= x11 <= 1
 0 <= x12 <= 1
 0 <= x13 <= 1

Binaries
 x0 x1 x2 x3 x4 x5 x6 x7 x8 x9 x10 x11 x12 x13
End
